0000000000000000
0011110111100000
0011110111100000
0001110111100000
0001111011100000
0000111011100000
0000111111100000
0001111111000000
0001111111000000
0001101110000000
0011101110000000
0011100111000000
0011110111000000
0011110111100000
0001110011100000
0000000000000000
